 $BASIS GBASIS=N31 NGAUSS=6 NDFUNC=1 NPFUNC=1 $END
 $CONTRL SCFTYP=RHF DFTTYP=B3LYP tddft=excite MAXIT=100 ECP=READ $END
 $SYSTEM MWORDS=3000 $END
 $SCF DIRSCF=.TRUE. FDIFF=.FALSE. $END
 $TDDFT nstate=50 mult=1 iroot=1 $END
 $PCM SOLVNT=ETHANOL SMD=.TRUE. $END



 $DATA 
Title
C1
C     6.0     1.02777     0.20242     0.06388
C     6.0     2.47013    -0.04533     0.04698
C     6.0     3.00592    -1.34134     0.21844
H     1.0     2.33139    -2.17543     0.38681
C     6.0     4.37294    -1.59116     0.20222
H     1.0     4.76702    -2.59222     0.34192
C     6.0     5.24059    -0.51912     0.01403
C     6.0     4.77964     0.78056    -0.15915
H     1.0     5.46049     1.61053    -0.30648
C     6.0     3.40859     0.98806    -0.14101
C     6.0     0.34498     1.40316     0.23087
C     6.0    -1.05269     1.27042     0.21776
C     6.0    -1.48946    -0.03813     0.03619
S    16.0    -0.10231    -1.11022    -0.13080
H     1.0     0.84658     2.34782     0.37795
H     1.0    -1.72567     2.10692     0.35063
C     6.0    -2.79617    -0.60839    -0.01702
C     6.0    -4.01990     0.01322     0.02002
C     6.0    -4.17942     1.42893     0.10144
H     1.0    -2.84077    -1.68946    -0.10773
N     7.0    -4.28801     2.58848     0.16768
C     6.0    -5.29057    -0.74085    -0.06709
O     8.0    -5.11751    -2.08232    -0.08496
H     1.0    -6.00413    -2.48173    -0.16748
O     8.0    -6.38803    -0.21031    -0.12585
F     9.0     2.97996     2.25604    -0.32255
F     9.0     6.56762    -0.74004     0.00302
 $END

